import pybind_plugin as pb # register options here

molecule {
O
H 1 R
H 1 R 2 A

R = .9
A = 104.5
}

set {
  basis sto-3g
}

e,wfn = energy('scf',return_wfn=True)

set PYBIND_PLUGIN {
  PBP_C_PRINT 4
  PBP_C_TYPE DF
}

pb.myplugin(wfn,psi4.core.get_options())
