import pybind_plugin as pb

molecule {
O
H 1 R
H 1 R 2 A

R = .9
A = 104.5
}

set {
  basis sto-3g
}

set pybind_plugin {
  print 1
}

e,wfn = energy('scf',return_wfn=True)

pb.myplugin(wfn,psi4.core.get_options())

